1 1 0
1 2 0
h 10 -2 0
h -6 4 -1 0
h 5 7 0
h -7 1 12 0
h 2 -12 0
h 4 -7 0
h 6 3 0
h -3 -6 0
h -16 42 0
h 16 42 0
1 -42 0
h 2 5 0
h -2 -5 0
h 1 -28 0
h 47 28 0
1 -47 0
h -2 -4 0
h 2 4 0
h -5 -1 0
h 1 5 0
h 10 52 0
h 52 -10 0
1 -52 0
h -3 6 0
